c Reduced graph for GEOM40a_2 generated by Cyril Grelier
p edge 33 124
e 1 2
e 1 14
e 1 15
e 1 17
e 1 23
e 1 26
e 1 30
e 1 31
e 2 7
e 2 14
e 2 17
e 2 28
e 2 30
e 2 31
e 3 9
e 3 10
e 3 19
e 3 20
e 3 27
e 4 5
e 4 6
e 4 8
e 4 9
e 4 11
e 4 16
e 4 22
e 4 24
e 4 25
e 4 29
e 4 32
e 5 8
e 5 9
e 5 11
e 5 13
e 5 16
e 5 18
e 5 22
e 5 25
e 5 29
e 5 33
e 6 21
e 6 24
e 6 25
e 6 29
e 7 10
e 7 12
e 7 14
e 7 28
e 8 9
e 8 11
e 8 13
e 8 16
e 8 18
e 8 25
e 8 29
e 8 33
e 9 11
e 9 16
e 9 19
e 9 22
e 9 25
e 9 29
e 10 12
e 10 19
e 10 20
e 10 27
e 10 28
e 11 13
e 11 16
e 11 18
e 11 22
e 11 24
e 11 25
e 11 32
e 11 33
e 12 14
e 12 20
e 12 27
e 12 28
e 13 16
e 13 18
e 13 33
e 14 17
e 14 28
e 15 17
e 15 21
e 15 23
e 15 26
e 15 30
e 15 31
e 16 18
e 16 22
e 16 32
e 16 33
e 17 21
e 17 23
e 17 26
e 17 30
e 17 31
e 18 32
e 18 33
e 19 20
e 19 27
e 19 29
e 20 27
e 21 23
e 21 26
e 21 30
e 21 31
e 22 24
e 22 25
e 22 29
e 22 32
e 23 26
e 23 30
e 23 31
e 24 25
e 24 32
e 25 29
e 25 32
e 26 30
e 26 31
e 27 28
e 30 31
